* SDPA sparse format data
* File name = st_jcbpafex.dat-s
* mDim =   9, nBlock =  8
* size of bVect = 1 *   9
* size of sparseMatrix =   83 * 5
  9
  8
-3  3  3  3  3  3  3  3 
  -0.2000000000   -0.2000000000    0.0000000000    1.0000000000    0.0000000000    0.0000000000    0.0000000000    0.0000000000    0.0000000000 
  4   1   1   1    1.0000000000
  3   1   2   2   -1.0000000000
  0   1   2   2   -1.0000000000
  5   1   3   3   -1.0000000000
  0   1   3   3   -1.0000000000
  0   2   1   1   -1.0000000000
  1   2   1   2    1.0000000000
  2   2   1   3    1.0000000000
  3   2   2   2    1.0000000000
  4   2   2   3    1.0000000000
  5   2   3   3    1.0000000000
  0   3   1   1   -0.0750000000
  1   3   1   1    0.7500000000
  2   3   1   1   -1.0000000000
  1   3   1   2    0.0750000000
  3   3   1   2    0.7500000000
  4   3   1   2   -1.0000000000
  2   3   1   3    0.0750000000
  4   3   1   3    0.7500000000
  5   3   1   3   -1.0000000000
  3   3   2   2    0.0750000000
  6   3   2   2    0.7500000000
  7   3   2   2   -1.0000000000
  4   3   2   3    0.0750000000
  7   3   2   3    0.7500000000
  8   3   2   3   -1.0000000000
  5   3   3   3    0.0750000000
  8   3   3   3    0.7500000000
  9   3   3   3   -1.0000000000
  0   4   1   1   -0.2000000000
  1   4   1   1   -1.0000000000
  2   4   1   1    0.3333333333
  1   4   1   2    0.2000000000
  3   4   1   2   -1.0000000000
  4   4   1   2    0.3333333333
  2   4   1   3    0.2000000000
  4   4   1   3   -1.0000000000
  5   4   1   3    0.3333333333
  3   4   2   2    0.2000000000
  6   4   2   2   -1.0000000000
  7   4   2   2    0.3333333333
  4   4   2   3    0.2000000000
  7   4   2   3   -1.0000000000
  8   4   2   3    0.3333333333
  5   4   3   3    0.2000000000
  8   4   3   3   -1.0000000000
  9   4   3   3    0.3333333333
  1   5   1   1    1.0000000000
  3   5   1   2    1.0000000000
  4   5   1   3    1.0000000000
  6   5   2   2    1.0000000000
  7   5   2   3    1.0000000000
  8   5   3   3    1.0000000000
  2   6   1   1    1.0000000000
  4   6   1   2    1.0000000000
  5   6   1   3    1.0000000000
  7   6   2   2    1.0000000000
  8   6   2   3    1.0000000000
  9   6   3   3    1.0000000000
  0   7   1   1   -1.0000000000
  1   7   1   1   -1.0000000000
  1   7   1   2    1.0000000000
  3   7   1   2   -1.0000000000
  2   7   1   3    1.0000000000
  4   7   1   3   -1.0000000000
  3   7   2   2    1.0000000000
  6   7   2   2   -1.0000000000
  4   7   2   3    1.0000000000
  7   7   2   3   -1.0000000000
  5   7   3   3    1.0000000000
  8   7   3   3   -1.0000000000
  0   8   1   1   -1.0000000000
  2   8   1   1   -1.0000000000
  1   8   1   2    1.0000000000
  4   8   1   2   -1.0000000000
  2   8   1   3    1.0000000000
  5   8   1   3   -1.0000000000
  3   8   2   2    1.0000000000
  7   8   2   2   -1.0000000000
  4   8   2   3    1.0000000000
  8   8   2   3   -1.0000000000
  5   8   3   3    1.0000000000
  9   8   3   3   -1.0000000000
